(set-logic QF_FP)
(set-info :source |Random FP created by PyMPF|)
(set-info :category random)
(set-info :status unsat)
(declare-const x Float32)
(assert (= x (_ +zero 8 24)))
(declare-const y Float32)
(assert (= y ((_ to_fp 8 24) #xCADCDE4F)))
(declare-const z Float32)
(assert (= z ((_ to_fp 8 24) #x8065C41E)))
(declare-const result Float32)
(assert (= result (fp.fma RTP x y z)))
(assert (not (= result (fp #b1 #b00000000 #b11001011100010000011110))))
(check-sat)
(exit)
